
  17    4
  10   10   10   10

   0   0   0   0   0   4 2 3 4 5 
   7  10  10  10  10   5 12 11 9 7 6 
   3  10  10  10  10   5 16 12 11 9 7 
   2  10  10  10  10   4 12 11 10 6 
   4  10  10  10  10   4 16 15 13 10 
   9  10  10  10  10   3 16 15 8 
   4  10  10  10  10   3 15 10 8 
   7  10  10  10  10   2 14 13 
   2  10  10  10  10   2 15 14 
   9  10  10  10  10   1 14 
   9  10  10  10  10   1 13 
   5  10  10  10  10   1 13 
   5  10  10  10  10   1 17
   3  10  10  10  10   1 17
   9  10  10  10  10   1 17
   2  10  10  10  10   1 17
   0   0   0   0   0   0 
